************************************************************************
file with basedata            : ma14_.bas
initial value random generator: 239
************************************************************************
projects                      :  1
jobs (incl. supersource/sink ):  12
horizon                       :  79
RESOURCES
  - renewable                 :  2   R
  - nonrenewable              :  2   N
  - doubly constrained        :  0   D
************************************************************************
PROJECT INFORMATION:
pronr.  #jobs rel.date duedate tardcost  MPM-Time
    1     10      0        9        5        9
************************************************************************
PRECEDENCE RELATIONS:
jobnr.    #modes  #successors   successors
   1        1          3           2   3   4
   2        3          2           5   7
   3        3          2           6   8
   4        3          1          10
   5        3          3           6   8   9
   6        3          2          10  11
   7        3          1           9
   8        3          1          11
   9        3          1          12
  10        3          1          12
  11        3          1          12
  12        1          0        
************************************************************************
REQUESTS/DURATIONS:
jobnr. mode duration  R 1  R 2  N 1  N 2
------------------------------------------------------------------------
  1      1     0       0    0    0    0
  2      1     3       6   10    5    5
         2     4       2   10    5    2
         3     4       5    9    4    3
  3      1     2       6    4    7    3
         2     3       6    2    5    3
         3     7       5    1    5    1
  4      1     5       8    9    3    6
         2     6       8    9    2    5
         3     9       8    8    2    4
  5      1     2       4    7   10    7
         2     8       4    6    8    6
         3    10       3    5    7    6
  6      1     3      10    6    9   10
         2     4       7    6    8   10
         3    10       5    5    6    9
  7      1     3       5    5    8    7
         2     5       4    4    6    7
         3     6       4    3    5    2
  8      1     2       5    9    8    8
         2     4       5    8    8    6
         3     8       5    8    7    1
  9      1     3       5    9    5    7
         2     5       5    8    3    6
         3     8       4    7    3    6
 10      1     1       5    8   10    3
         2     4       4    7   10    3
         3     9       3    6    9    3
 11      1     1       4    8    4    9
         2     4       2    7    3    4
         3     8       2    6    2    3
 12      1     0       0    0    0    0
************************************************************************
RESOURCEAVAILABILITIES:
  R 1  R 2  N 1  N 2
   20   25   54   43
************************************************************************
MAXIMAL LAGS:
from  to  type  delay
    1   12   ES      0
    1    2   ES      0
    2   12   ES      0
    1    3   ES      0
    3   12   ES      0
    1    4   ES      0
    4   12   ES      0
    1    5   ES      0
    5   12   ES      0
    1    6   ES      0
    6   12   ES      0
    1    7   ES      0
    7   12   ES      0
    1    8   ES      0
    8   12   ES      0
    1    9   ES      0
    9   12   ES      0
    1   10   ES      0
   10   12   ES      0
    1   11   ES      0
   11   12   ES      0
    1   12   ES      0
    2    5   SS      6
    2    5   SE     -9
    2    5   ES     10
    2    5   EE     -8
    2    7   SS    -11
    2    7   SE     -5
    2    7   ES     11
    2    7   EE     10
    3    6   SS      5
    3    6   SE     -9
    3    6   ES      5
    3    6   EE      3
    3    8   SS      0
    3    8   SE      8
    3    8   ES      6
    3    8   EE     10
    4   10   SS     11
    4   10   SE     -8
    4   10   ES    -11
    4   10   EE      4
    5    6   SS     -7
    5    6   SE      5
    5    6   ES     -5
    5    6   EE     -8
    5    8   SS     -5
    5    8   SE    -11
    5    8   ES      4
    5    8   EE      7
    5    9   SS      5
    5    9   SE    -10
    5    9   ES     -5
    5    9   EE      5
    6   10   SS      5
    6   10   SE    -10
    6   10   ES     -2
    6   10   EE      4
    6   11   SS      5
    6   11   SE    -10
    6   11   ES     -4
    6   11   EE     -4
    7    9   SS     -2
    7    9   SE      5
    7    9   ES     -8
    7    9   EE     -7
    8   11   SS    -11
    8   11   SE      1
    8   11   ES      3
    8   11   EE     -6
************************************************************************
